\* metodo2 *\
Maximize
Total_de_calorias: 469.1862 Alim_Leche_descremada
Subject To
Limite_inferior_de_proteinas: 16.7688 Alim_Leche_descremada >= 31.0612745098
_C1: 469.1862 Alim_Leche_descremada <= 407.638227127
_C2: 469.1862 Alim_Leche_descremada <= 387.256315771
End
